
        $ From http://www.csplib.org/Problems/prob009/data/helmut.pdf
        $ Problem number 180
        $ Sequence length : 25
        language ESSENCE' 1.0
        letting sizemaster be 552
        letting sizes be sequence(1,3,4,7,8,9,10,15,18,19,21,41,52,54,73,93,95,123,125,136,138,153,168,261,291)
        